time_units_in_minute = 60;
number_of_time_units = 30;
number_of_lights = 12;
number_of_roads = 12;
number_of_connections = 12;
car_flow_per_min = [6, 11, 20, 8, 11, 20, 6, 13, 18, 10, 10, 15];
roads_connections = [| 2, 10, 1, -1, 
                     | 3, 6, 2, -1, 
                     | 3, 3, 2, 3, 
                     | 5, 1, 4, -1, 
                     | 6, 9, 5, -1, 
                     | 6, 6, 5, 6, 
                     | 8, 4, 7, -1, 
                     | 9, 0, 8, -1, 
                     | 9, 9, 8, 9, 
                     | 11, 7, 10, -1, 
                     | 0, 3, 11, -1, 
                     | 0, 0, 11, 12 |];
lights_heavy_conflicts = [| 1, 4, 
                          | 1, 5, 
                          | 1, 8, 
                          | 1, 9, 
                          | 1, 10, 
                          | 1, 11, 
                          | 2, 4, 
                          | 2, 5, 
                          | 2, 7, 
                          | 2, 10, 
                          | 2, 11, 
                          | 3, 7, 
                          | 4, 7, 
                          | 4, 8, 
                          | 4, 11, 
                          | 4, 12, 
                          | 5, 7, 
                          | 5, 8, 
                          | 5, 10, 
                          | 6, 10, 
                          | 7, 10, 
                          | 7, 11, 
                          | 8, 10, 
                          | 8, 11 |];
heavy_conflicts_no = 24;
lights_light_conflicts = [| 2, 6, 
                          | 3, 11, 
                          | 5, 9, 
                          | 8, 12 |];
light_conflicts_no = 4;
